c instance by G2
c solution = 010000000001101
c Known solution cost is 607 
p cnf 15 30
w 10 68 35 57 97 13 10 62 48 14 34 46 36 36 41
2 5 8 0
10 5 -14 0
6 -14 -9 0
-14 1 5 0
-11 3 -12 0
-7 -8 2 0
4 9 -7 0
8 -10 7 0
15 7 -2 0
7 15 6 0
3 2 -4 0
-4 6 -10 0
6 -4 -15 0
13 9 5 0
-13 -1 4 0
7 -12 15 0
-8 5 6 0
10 -6 -2 0
-10 -11 -13 0
1 -7 3 0
7 6 -3 0
15 6 1 0
10 -12 2 0
10 -15 13 0
5 9 -1 0
6 1 12 0
14 12 11 0
1 -7 -13 0
5 -9 11 0
-5 4 -13 0
